131782
57,55,50,71,80,33,48,46,42,59,41,22,11,56,2,54,68,24,14,60,5,27,7,82,58,52,18,30,23,64,3,49,62,38,51,40,77,29,78,34,67,43,21,4,47,17,36,12,20,53,45,72,63,28,0,9,44,61,69,79,25,75,66,13,70,35,65,19,16,73,26,6,15,1,37,10,74,81,39,32,31,8,76